modeles/2_124.lp
minimize
obj: 1 x_1_ + 1 x_2_
subject to
c1_1: 1 t_1,1_ - 1 y_1,1_ <= 0
c2_1: 1 t_1,2_ - 1 y_1,1_ - 1 y_1,2_ <= 0
c3_1: 1 t_1,3_ - 1 y_1,2_ - 1 y_1,3_ <= 0
c4_1: 1 t_1,4_ - 1 y_1,3_ - 1 y_1,4_ <= 0
c5_1: 1 t_1,5_ - 1 y_1,4_ - 1 y_1,5_ <= 0
c6_1: 1 t_1,6_ - 1 y_1,5_ - 1 y_1,6_ <= 0
c7: 1 t_1,7_ - 1 y_1,6_ - 1 y_1,7_ <= 0
c8: 1 t_1,8_ - 1 y_1,7_ - 1 y_1,8_ <= 0
c9: 1 t_1,9_ - 1 y_1,8_ - 1 y_1,9_ <= 0
c10: 1 t_1,10_ - 1 y_1,9_ - 1 y_1,10_ <= 0
c11: 1 t_1,11_ - 1 y_1,10_ - 1 y_1,11_ <= 0
c12: 1 t_1,12_ - 1 y_1,11_ - 1 y_1,12_ <= 0
c13: 1 t_1,13_ - 1 y_1,12_ - 1 y_1,13_ <= 0
c14: 1 t_1,14_ - 1 y_1,13_ - 1 y_1,14_ <= 0
c15: 1 t_1,15_ - 1 y_1,14_ - 1 y_1,15_ <= 0
c16: 1 t_1,16_ - 1 y_1,15_ - 1 y_1,16_ <= 0
c17: 1 t_1,17_ - 1 y_1,16_ - 1 y_1,17_ <= 0
c18: 1 t_1,18_ - 1 y_1,17_ - 1 y_1,18_ <= 0
c19: 1 t_1,19_ - 1 y_1,18_ - 1 y_1,19_ <= 0
c20: 1 t_1,20_ - 1 y_1,19_ - 1 y_1,20_ <= 0
c21: 1 t_1,21_ - 1 y_1,20_ - 1 y_1,21_ <= 0
c22: 1 t_1,22_ - 1 y_1,21_ - 1 y_1,22_ <= 0
c23: 1 t_1,23_ - 1 y_1,22_ - 1 y_1,23_ <= 0
c24: 1 t_1,24_ - 1 y_1,23_ - 1 y_1,24_ <= 0
c25: 1 t_1,25_ - 1 y_1,24_ - 1 y_1,25_ <= 0
c26: 1 t_1,26_ - 1 y_1,25_ - 1 y_1,26_ <= 0
c27: 1 t_1,27_ - 1 y_1,26_ - 1 y_1,27_ <= 0
c28: 1 t_1,28_ - 1 y_1,27_ - 1 y_1,28_ <= 0
c29: 1 t_1,29_ - 1 y_1,28_ - 1 y_1,29_ <= 0
c30: 1 t_1,30_ - 1 y_1,29_ - 1 y_1,30_ <= 0
c31: 1 t_1,31_ - 1 y_1,30_ - 1 y_1,31_ <= 0
c32: 1 t_1,32_ - 1 y_1,31_ - 1 y_1,32_ <= 0
c33: 1 t_1,33_ - 1 y_1,32_ - 1 y_1,33_ <= 0
c34: 1 t_1,34_ - 1 y_1,33_ - 1 y_1,34_ <= 0
c35: 1 t_1,35_ - 1 y_1,34_ - 1 y_1,35_ <= 0
c36: 1 t_1,36_ - 1 y_1,35_ - 1 y_1,36_ <= 0
c37: 1 t_1,37_ - 1 y_1,36_ - 1 y_1,37_ <= 0
c38: 1 t_1,38_ - 1 y_1,37_ - 1 y_1,38_ <= 0
c39: 1 t_1,39_ - 1 y_1,38_ - 1 y_1,39_ <= 0
c40: 1 t_1,40_ - 1 y_1,39_ - 1 y_1,40_ <= 0
c41: 1 t_1,41_ - 1 y_1,40_ - 1 y_1,41_ <= 0
c42: 1 t_1,42_ - 1 y_1,41_ - 1 y_1,42_ <= 0
c43: 1 t_1,43_ - 1 y_1,42_ - 1 y_1,43_ <= 0
c44: 1 t_1,44_ - 1 y_1,43_ - 1 y_1,44_ <= 0
c45: 1 t_1,45_ - 1 y_1,44_ - 1 y_1,45_ <= 0
c46: 1 t_1,46_ - 1 y_1,45_ - 1 y_1,46_ <= 0
c47: 1 t_1,47_ - 1 y_1,46_ - 1 y_1,47_ <= 0
c48: 1 t_1,48_ - 1 y_1,47_ - 1 y_1,48_ <= 0
c49: 1 t_1,49_ - 1 y_1,48_ - 1 y_1,49_ <= 0
c50: 1 t_1,50_ - 1 y_1,49_ - 1 y_1,50_ <= 0
c51: 1 t_1,51_ - 1 y_1,50_ - 1 y_1,51_ <= 0
c52: 1 t_1,52_ - 1 y_1,51_ - 1 y_1,52_ <= 0
c53: 1 t_1,53_ - 1 y_1,52_ - 1 y_1,53_ <= 0
c54: 1 t_1,54_ - 1 y_1,53_ - 1 y_1,54_ <= 0
c55: 1 t_1,55_ - 1 y_1,54_ - 1 y_1,55_ <= 0
c56: 1 t_1,56_ - 1 y_1,55_ - 1 y_1,56_ <= 0
c57: 1 t_1,57_ - 1 y_1,56_ - 1 y_1,57_ <= 0
c58: 1 t_1,58_ - 1 y_1,57_ - 1 y_1,58_ <= 0
c59: 1 t_1,59_ - 1 y_1,58_ - 1 y_1,59_ <= 0
c60: 1 t_1,60_ - 1 y_1,59_ - 1 y_1,60_ <= 0
c61: 1 t_1,61_ - 1 y_1,60_ - 1 y_1,61_ <= 0
c62: 1 t_1,62_ - 1 y_1,61_ - 1 y_1,62_ <= 0
c63: 1 t_1,63_ - 1 y_1,62_ - 1 y_1,63_ <= 0
c64: 1 t_1,64_ - 1 y_1,63_ - 1 y_1,64_ <= 0
c65: 1 t_1,65_ - 1 y_1,64_ - 1 y_1,65_ <= 0
c66: 1 t_1,66_ - 1 y_1,65_ - 1 y_1,66_ <= 0
c67: 1 t_1,67_ - 1 y_1,66_ - 1 y_1,67_ <= 0
c68: 1 t_1,68_ - 1 y_1,67_ - 1 y_1,68_ <= 0
c69: 1 t_1,69_ - 1 y_1,68_ - 1 y_1,69_ <= 0
c70: 1 t_1,70_ - 1 y_1,69_ - 1 y_1,70_ <= 0
c71: 1 t_1,71_ - 1 y_1,70_ - 1 y_1,71_ <= 0
c72: 1 t_1,72_ - 1 y_1,71_ - 1 y_1,72_ <= 0
c73: 1 t_1,73_ - 1 y_1,72_ - 1 y_1,73_ <= 0
c74: 1 t_1,74_ - 1 y_1,73_ - 1 y_1,74_ <= 0
c75: 1 t_1,75_ - 1 y_1,74_ - 1 y_1,75_ <= 0
c76: 1 t_1,76_ - 1 y_1,75_ - 1 y_1,76_ <= 0
c77: 1 t_1,77_ - 1 y_1,76_ - 1 y_1,77_ <= 0
c78: 1 t_1,78_ - 1 y_1,77_ - 1 y_1,78_ <= 0
c79: 1 t_1,79_ - 1 y_1,78_ - 1 y_1,79_ <= 0
c80: 1 t_1,80_ - 1 y_1,79_ - 1 y_1,80_ <= 0
c81: 1 t_1,81_ - 1 y_1,80_ - 1 y_1,81_ <= 0
c82: 1 t_1,82_ - 1 y_1,81_ - 1 y_1,82_ <= 0
c83: 1 t_1,83_ - 1 y_1,82_ - 1 y_1,83_ <= 0
c84: 1 t_1,84_ - 1 y_1,83_ - 1 y_1,84_ <= 0
c85: 1 t_1,85_ - 1 y_1,84_ - 1 y_1,85_ <= 0
c86: 1 t_1,86_ - 1 y_1,85_ - 1 y_1,86_ <= 0
c87: 1 t_1,87_ - 1 y_1,86_ - 1 y_1,87_ <= 0
c88: 1 t_1,88_ - 1 y_1,87_ - 1 y_1,88_ <= 0
c89: 1 t_1,89_ - 1 y_1,88_ - 1 y_1,89_ <= 0
c90: 1 t_1,90_ - 1 y_1,89_ - 1 y_1,90_ <= 0
c91: 1 t_1,91_ - 1 y_1,90_ - 1 y_1,91_ <= 0
c92: 1 t_1,92_ - 1 y_1,91_ - 1 y_1,92_ <= 0
c93: 1 t_1,93_ - 1 y_1,92_ - 1 y_1,93_ <= 0
c94: 1 t_1,94_ - 1 y_1,93_ - 1 y_1,94_ <= 0
c95: 1 t_1,95_ - 1 y_1,94_ - 1 y_1,95_ <= 0
c96: 1 t_1,96_ - 1 y_1,95_ - 1 y_1,96_ <= 0
c97: 1 t_1,97_ - 1 y_1,96_ - 1 y_1,97_ <= 0
c98: 1 t_1,98_ - 1 y_1,97_ - 1 y_1,98_ <= 0
c99: 1 t_1,99_ - 1 y_1,98_ - 1 y_1,99_ <= 0
c100: 1 t_1,100_ - 1 y_1,99_ - 1 y_1,100_ <= 0
c101: 1 t_1,101_ - 1 y_1,100_ - 1 y_1,101_ <= 0
c102: 1 t_1,102_ - 1 y_1,101_ - 1 y_1,102_ <= 0
c103: 1 t_1,103_ - 1 y_1,102_ - 1 y_1,103_ <= 0
c104: 1 t_1,104_ - 1 y_1,103_ - 1 y_1,104_ <= 0
c105: 1 t_1,105_ - 1 y_1,104_ - 1 y_1,105_ <= 0
c106: 1 t_1,106_ - 1 y_1,105_ - 1 y_1,106_ <= 0
c107: 1 t_1,107_ - 1 y_1,106_ - 1 y_1,107_ <= 0
c108: 1 t_1,108_ - 1 y_1,107_ - 1 y_1,108_ <= 0
c109: 1 t_1,109_ - 1 y_1,108_ - 1 y_1,109_ <= 0
c110: 1 t_1,110_ - 1 y_1,109_ - 1 y_1,110_ <= 0
c111: 1 t_1,111_ - 1 y_1,110_ - 1 y_1,111_ <= 0
c112: 1 t_1,112_ - 1 y_1,111_ - 1 y_1,112_ <= 0
c113: 1 t_1,113_ - 1 y_1,112_ - 1 y_1,113_ <= 0
c114: 1 t_1,114_ - 1 y_1,113_ - 1 y_1,114_ <= 0
c115: 1 t_1,115_ - 1 y_1,114_ - 1 y_1,115_ <= 0
c116: 1 t_1,116_ - 1 y_1,115_ - 1 y_1,116_ <= 0
c117: 1 t_1,117_ - 1 y_1,116_ - 1 y_1,117_ <= 0
c118: 1 t_1,118_ - 1 y_1,117_ - 1 y_1,118_ <= 0
c119: 1 t_1,119_ - 1 y_1,118_ - 1 y_1,119_ <= 0
c120: 1 t_1,120_ - 1 y_1,119_ - 1 y_1,120_ <= 0
c121: 1 t_1,121_ - 1 y_1,120_ - 1 y_1,121_ <= 0
c122: 1 t_1,122_ - 1 y_1,121_ - 1 y_1,122_ <= 0
c123: 1 t_1,123_ - 1 y_1,122_ - 1 y_1,123_ <= 0
c124: 1 t_1,124_ - 1 y_1,123_ - 1 y_1,124_ <= 0
c125: 1 t_1,125_ - 1 y_1,124_ <= 0
c126: 1 t_2,1_ - 1 y_2,1_ <= 0
c127: 1 t_2,2_ - 1 y_2,1_ - 1 y_2,2_ <= 0
c128: 1 t_2,3_ - 1 y_2,2_ - 1 y_2,3_ <= 0
c129: 1 t_2,4_ - 1 y_2,3_ - 1 y_2,4_ <= 0
c130: 1 t_2,5_ - 1 y_2,4_ - 1 y_2,5_ <= 0
c131: 1 t_2,6_ - 1 y_2,5_ - 1 y_2,6_ <= 0
c132: 1 t_2,7_ - 1 y_2,6_ - 1 y_2,7_ <= 0
c133: 1 t_2,8_ - 1 y_2,7_ - 1 y_2,8_ <= 0
c134: 1 t_2,9_ - 1 y_2,8_ - 1 y_2,9_ <= 0
c135: 1 t_2,10_ - 1 y_2,9_ - 1 y_2,10_ <= 0
c136: 1 t_2,11_ - 1 y_2,10_ - 1 y_2,11_ <= 0
c137: 1 t_2,12_ - 1 y_2,11_ - 1 y_2,12_ <= 0
c138: 1 t_2,13_ - 1 y_2,12_ - 1 y_2,13_ <= 0
c139: 1 t_2,14_ - 1 y_2,13_ - 1 y_2,14_ <= 0
c140: 1 t_2,15_ - 1 y_2,14_ - 1 y_2,15_ <= 0
c141: 1 t_2,16_ - 1 y_2,15_ - 1 y_2,16_ <= 0
c142: 1 t_2,17_ - 1 y_2,16_ - 1 y_2,17_ <= 0
c143: 1 t_2,18_ - 1 y_2,17_ - 1 y_2,18_ <= 0
c144: 1 t_2,19_ - 1 y_2,18_ - 1 y_2,19_ <= 0
c145: 1 t_2,20_ - 1 y_2,19_ - 1 y_2,20_ <= 0
c146: 1 t_2,21_ - 1 y_2,20_ - 1 y_2,21_ <= 0
c147: 1 t_2,22_ - 1 y_2,21_ - 1 y_2,22_ <= 0
c148: 1 t_2,23_ - 1 y_2,22_ - 1 y_2,23_ <= 0
c149: 1 t_2,24_ - 1 y_2,23_ - 1 y_2,24_ <= 0
c150: 1 t_2,25_ - 1 y_2,24_ - 1 y_2,25_ <= 0
c151: 1 t_2,26_ - 1 y_2,25_ - 1 y_2,26_ <= 0
c152: 1 t_2,27_ - 1 y_2,26_ - 1 y_2,27_ <= 0
c153: 1 t_2,28_ - 1 y_2,27_ - 1 y_2,28_ <= 0
c154: 1 t_2,29_ - 1 y_2,28_ - 1 y_2,29_ <= 0
c155: 1 t_2,30_ - 1 y_2,29_ - 1 y_2,30_ <= 0
c156: 1 t_2,31_ - 1 y_2,30_ - 1 y_2,31_ <= 0
c157: 1 t_2,32_ - 1 y_2,31_ - 1 y_2,32_ <= 0
c158: 1 t_2,33_ - 1 y_2,32_ - 1 y_2,33_ <= 0
c159: 1 t_2,34_ - 1 y_2,33_ - 1 y_2,34_ <= 0
c160: 1 t_2,35_ - 1 y_2,34_ - 1 y_2,35_ <= 0
c161: 1 t_2,36_ - 1 y_2,35_ - 1 y_2,36_ <= 0
c162: 1 t_2,37_ - 1 y_2,36_ - 1 y_2,37_ <= 0
c163: 1 t_2,38_ - 1 y_2,37_ - 1 y_2,38_ <= 0
c164: 1 t_2,39_ - 1 y_2,38_ - 1 y_2,39_ <= 0
c165: 1 t_2,40_ - 1 y_2,39_ - 1 y_2,40_ <= 0
c166: 1 t_2,41_ - 1 y_2,40_ - 1 y_2,41_ <= 0
c167: 1 t_2,42_ - 1 y_2,41_ - 1 y_2,42_ <= 0
c168: 1 t_2,43_ - 1 y_2,42_ - 1 y_2,43_ <= 0
c169: 1 t_2,44_ - 1 y_2,43_ - 1 y_2,44_ <= 0
c170: 1 t_2,45_ - 1 y_2,44_ - 1 y_2,45_ <= 0
c171: 1 t_2,46_ - 1 y_2,45_ - 1 y_2,46_ <= 0
c172: 1 t_2,47_ - 1 y_2,46_ - 1 y_2,47_ <= 0
c173: 1 t_2,48_ - 1 y_2,47_ - 1 y_2,48_ <= 0
c174: 1 t_2,49_ - 1 y_2,48_ - 1 y_2,49_ <= 0
c175: 1 t_2,50_ - 1 y_2,49_ - 1 y_2,50_ <= 0
c176: 1 t_2,51_ - 1 y_2,50_ - 1 y_2,51_ <= 0
c177: 1 t_2,52_ - 1 y_2,51_ - 1 y_2,52_ <= 0
c178: 1 t_2,53_ - 1 y_2,52_ - 1 y_2,53_ <= 0
c179: 1 t_2,54_ - 1 y_2,53_ - 1 y_2,54_ <= 0
c180: 1 t_2,55_ - 1 y_2,54_ - 1 y_2,55_ <= 0
c181: 1 t_2,56_ - 1 y_2,55_ - 1 y_2,56_ <= 0
c182: 1 t_2,57_ - 1 y_2,56_ - 1 y_2,57_ <= 0
c183: 1 t_2,58_ - 1 y_2,57_ - 1 y_2,58_ <= 0
c184: 1 t_2,59_ - 1 y_2,58_ - 1 y_2,59_ <= 0
c185: 1 t_2,60_ - 1 y_2,59_ - 1 y_2,60_ <= 0
c186: 1 t_2,61_ - 1 y_2,60_ - 1 y_2,61_ <= 0
c187: 1 t_2,62_ - 1 y_2,61_ - 1 y_2,62_ <= 0
c188: 1 t_2,63_ - 1 y_2,62_ - 1 y_2,63_ <= 0
c189: 1 t_2,64_ - 1 y_2,63_ - 1 y_2,64_ <= 0
c190: 1 t_2,65_ - 1 y_2,64_ - 1 y_2,65_ <= 0
c191: 1 t_2,66_ - 1 y_2,65_ - 1 y_2,66_ <= 0
c192: 1 t_2,67_ - 1 y_2,66_ - 1 y_2,67_ <= 0
c193: 1 t_2,68_ - 1 y_2,67_ - 1 y_2,68_ <= 0
c194: 1 t_2,69_ - 1 y_2,68_ - 1 y_2,69_ <= 0
c195: 1 t_2,70_ - 1 y_2,69_ - 1 y_2,70_ <= 0
c196: 1 t_2,71_ - 1 y_2,70_ - 1 y_2,71_ <= 0
c197: 1 t_2,72_ - 1 y_2,71_ - 1 y_2,72_ <= 0
c198: 1 t_2,73_ - 1 y_2,72_ - 1 y_2,73_ <= 0
c199: 1 t_2,74_ - 1 y_2,73_ - 1 y_2,74_ <= 0
c200: 1 t_2,75_ - 1 y_2,74_ - 1 y_2,75_ <= 0
c201: 1 t_2,76_ - 1 y_2,75_ - 1 y_2,76_ <= 0
c202: 1 t_2,77_ - 1 y_2,76_ - 1 y_2,77_ <= 0
c203: 1 t_2,78_ - 1 y_2,77_ - 1 y_2,78_ <= 0
c204: 1 t_2,79_ - 1 y_2,78_ - 1 y_2,79_ <= 0
c205: 1 t_2,80_ - 1 y_2,79_ - 1 y_2,80_ <= 0
c206: 1 t_2,81_ - 1 y_2,80_ - 1 y_2,81_ <= 0
c207: 1 t_2,82_ - 1 y_2,81_ - 1 y_2,82_ <= 0
c208: 1 t_2,83_ - 1 y_2,82_ - 1 y_2,83_ <= 0
c209: 1 t_2,84_ - 1 y_2,83_ - 1 y_2,84_ <= 0
c210: 1 t_2,85_ - 1 y_2,84_ - 1 y_2,85_ <= 0
c211: 1 t_2,86_ - 1 y_2,85_ - 1 y_2,86_ <= 0
c212: 1 t_2,87_ - 1 y_2,86_ - 1 y_2,87_ <= 0
c213: 1 t_2,88_ - 1 y_2,87_ - 1 y_2,88_ <= 0
c214: 1 t_2,89_ - 1 y_2,88_ - 1 y_2,89_ <= 0
c215: 1 t_2,90_ - 1 y_2,89_ - 1 y_2,90_ <= 0
c216: 1 t_2,91_ - 1 y_2,90_ - 1 y_2,91_ <= 0
c217: 1 t_2,92_ - 1 y_2,91_ - 1 y_2,92_ <= 0
c218: 1 t_2,93_ - 1 y_2,92_ - 1 y_2,93_ <= 0
c219: 1 t_2,94_ - 1 y_2,93_ - 1 y_2,94_ <= 0
c220: 1 t_2,95_ - 1 y_2,94_ - 1 y_2,95_ <= 0
c221: 1 t_2,96_ - 1 y_2,95_ - 1 y_2,96_ <= 0
c222: 1 t_2,97_ - 1 y_2,96_ - 1 y_2,97_ <= 0
c223: 1 t_2,98_ - 1 y_2,97_ - 1 y_2,98_ <= 0
c224: 1 t_2,99_ - 1 y_2,98_ - 1 y_2,99_ <= 0
c225: 1 t_2,100_ - 1 y_2,99_ - 1 y_2,100_ <= 0
c226: 1 t_2,101_ - 1 y_2,100_ - 1 y_2,101_ <= 0
c227: 1 t_2,102_ - 1 y_2,101_ - 1 y_2,102_ <= 0
c228: 1 t_2,103_ - 1 y_2,102_ - 1 y_2,103_ <= 0
c229: 1 t_2,104_ - 1 y_2,103_ - 1 y_2,104_ <= 0
c230: 1 t_2,105_ - 1 y_2,104_ - 1 y_2,105_ <= 0
c231: 1 t_2,106_ - 1 y_2,105_ - 1 y_2,106_ <= 0
c232: 1 t_2,107_ - 1 y_2,106_ - 1 y_2,107_ <= 0
c233: 1 t_2,108_ - 1 y_2,107_ - 1 y_2,108_ <= 0
c234: 1 t_2,109_ - 1 y_2,108_ - 1 y_2,109_ <= 0
c235: 1 t_2,110_ - 1 y_2,109_ - 1 y_2,110_ <= 0
c236: 1 t_2,111_ - 1 y_2,110_ - 1 y_2,111_ <= 0
c237: 1 t_2,112_ - 1 y_2,111_ - 1 y_2,112_ <= 0
c238: 1 t_2,113_ - 1 y_2,112_ - 1 y_2,113_ <= 0
c239: 1 t_2,114_ - 1 y_2,113_ - 1 y_2,114_ <= 0
c240: 1 t_2,115_ - 1 y_2,114_ - 1 y_2,115_ <= 0
c241: 1 t_2,116_ - 1 y_2,115_ - 1 y_2,116_ <= 0
c242: 1 t_2,117_ - 1 y_2,116_ - 1 y_2,117_ <= 0
c243: 1 t_2,118_ - 1 y_2,117_ - 1 y_2,118_ <= 0
c244: 1 t_2,119_ - 1 y_2,118_ - 1 y_2,119_ <= 0
c245: 1 t_2,120_ - 1 y_2,119_ - 1 y_2,120_ <= 0
c246: 1 t_2,121_ - 1 y_2,120_ - 1 y_2,121_ <= 0
c247: 1 t_2,122_ - 1 y_2,121_ - 1 y_2,122_ <= 0
c248: 1 t_2,123_ - 1 y_2,122_ - 1 y_2,123_ <= 0
c249: 1 t_2,124_ - 1 y_2,123_ - 1 y_2,124_ <= 0
c250: 1 t_2,125_ - 1 y_2,124_ <= 0
c251: 4 t_1,1_ + 4 t_2,1_ + 3.872008324661811 t_1,2_ + 3.872008324661811 t_2,2_ + 3.746097814776275 t_1,3_ + 3.746097814776275 t_2,3_ + 3.6222684703433927 t_1,4_ + 3.6222684703433927 t_2,4_ + 3.5005202913631637 t_1,5_ + 3.5005202913631637 t_2,5_ + 3.3808532778355884 t_1,6_ + 3.3808532778355884 t_2,6_ + 3.2632674297606665 t_1,7_ + 3.2632674297606665 t_2,7_ + 3.1477627471383984 t_1,8_ + 3.1477627471383984 t_2,8_ + 3.0343392299687832 t_1,9_ + 3.0343392299687832 t_2,9_ + 2.9229968782518205 t_1,10_ + 2.9229968782518205 t_2,10_ + 2.8137356919875125 t_1,11_ + 2.8137356919875125 t_2,11_ + 2.7065556711758583 t_1,12_ + 2.7065556711758583 t_2,12_ + 2.601456815816857 t_1,13_ + 2.601456815816857 t_2,13_ + 2.49843912591051 t_1,14_ + 2.49843912591051 t_2,14_ + 2.3975026014568157 t_1,15_ + 2.3975026014568157 t_2,15_ + 2.2986472424557753 t_1,16_ + 2.2986472424557753 t_2,16_ + 2.2018730489073883 t_1,17_ + 2.2018730489073883 t_2,17_ + 2.1071800208116547 t_1,18_ + 2.1071800208116547 t_2,18_ + 2.014568158168575 t_1,19_ + 2.014568158168575 t_2,19_ + 1.924037460978148 t_1,20_ + 1.924037460978148 t_2,20_ + 1.835587929240375 t_1,21_ + 1.835587929240375 t_2,21_ + 1.7492195629552554 t_1,22_ + 1.7492195629552554 t_2,22_ + 1.664932362122788 t_1,23_ + 1.664932362122788 t_2,23_ + 1.5827263267429754 t_1,24_ + 1.5827263267429754 t_2,24_ + 1.5026014568158164 t_1,25_ + 1.5026014568158164 t_2,25_ + 1.4245577523413107 t_1,26_ + 1.4245577523413107 t_2,26_ + 1.3485952133194585 t_1,27_ + 1.3485952133194585 t_2,27_ + 1.27471383975026 t_1,28_ + 1.27471383975026 t_2,28_ + 1.2029136316337148 t_1,29_ + 1.2029136316337148 t_2,29_ + 1.133194588969823 t_1,30_ + 1.133194588969823 t_2,30_ + 1.0655567117585847 t_1,31_ + 1.0655567117585847 t_2,31_ + 1 t_1,32_ + 1 t_2,32_ + 0.9365244536940688 t_1,33_ + 0.9365244536940688 t_2,33_ + 0.8751300728407909 t_1,34_ + 0.8751300728407909 t_2,34_ + 0.8158168574401666 t_1,35_ + 0.8158168574401666 t_2,35_ + 0.7585848074921956 t_1,36_ + 0.7585848074921956 t_2,36_ + 0.7034339229968783 t_1,37_ + 0.7034339229968783 t_2,37_ + 0.6503642039542145 t_1,38_ + 0.6503642039542145 t_2,38_ + 0.599375650364204 t_1,39_ + 0.599375650364204 t_2,39_ + 0.5504682622268472 t_1,40_ + 0.5504682622268472 t_2,40_ + 0.5036420395421438 t_1,41_ + 0.5036420395421438 t_2,41_ + 0.4588969823100939 t_1,42_ + 0.4588969823100939 t_2,42_ + 0.41623309053069746 t_1,43_ + 0.41623309053069746 t_2,43_ + 0.3756503642039541 t_1,44_ + 0.3756503642039541 t_2,44_ + 0.33714880332986463 t_1,45_ + 0.33714880332986463 t_2,45_ + 0.3007284079084287 t_1,46_ + 0.3007284079084287 t_2,46_ + 0.26638917793964617 t_1,47_ + 0.26638917793964617 t_2,47_ + 0.2341311134235172 t_1,48_ + 0.2341311134235172 t_2,48_ + 0.20395421436004166 t_1,49_ + 0.20395421436004166 t_2,49_ + 0.17585848074921961 t_1,50_ + 0.17585848074921961 t_2,50_ + 0.14984391259105106 t_1,51_ + 0.14984391259105106 t_2,51_ + 0.12591050988553576 t_1,52_ + 0.12591050988553576 t_2,52_ + 0.10405827263267418 t_1,53_ + 0.10405827263267418 t_2,53_ + 0.0842872008324661 t_1,54_ + 0.0842872008324661 t_2,54_ + 0.06659729448491149 t_1,55_ + 0.06659729448491149 t_2,55_ + 0.050988553590010366 t_1,56_ + 0.050988553590010366 t_2,56_ + 0.037460978147762725 t_1,57_ + 0.037460978147762725 t_2,57_ + 0.026014568158168563 t_1,58_ + 0.026014568158168563 t_2,58_ + 0.016649323621227886 t_1,59_ + 0.016649323621227886 t_2,59_ + 0.00936524453694067 t_1,60_ + 0.00936524453694067 t_2,60_ + 0.0041623309053069645 t_1,61_ + 0.0041623309053069645 t_2,61_ + 0.0010405827263267411 t_1,62_ + 0.0010405827263267411 t_2,62_ + 0.0010405827263267411 t_1,64_ + 0.0010405827263267411 t_2,64_ + 0.0041623309053069645 t_1,65_ + 0.0041623309053069645 t_2,65_ + 0.00936524453694067 t_1,66_ + 0.00936524453694067 t_2,66_ + 0.016649323621227858 t_1,67_ + 0.016649323621227858 t_2,67_ + 0.02601456815816853 t_1,68_ + 0.02601456815816853 t_2,68_ + 0.03746097814776268 t_1,69_ + 0.03746097814776268 t_2,69_ + 0.05098855359001032 t_1,70_ + 0.05098855359001032 t_2,70_ + 0.06659729448491167 t_1,71_ + 0.06659729448491167 t_2,71_ + 0.08428720083246628 t_1,72_ + 0.08428720083246628 t_2,72_ + 0.1040582726326744 t_1,73_ + 0.1040582726326744 t_2,73_ + 0.12591050988553598 t_1,74_ + 0.12591050988553598 t_2,74_ + 0.14984391259105106 t_1,75_ + 0.14984391259105106 t_2,75_ + 0.17585848074921961 t_1,76_ + 0.17585848074921961 t_2,76_ + 0.20395421436004166 t_1,77_ + 0.20395421436004166 t_2,77_ + 0.2341311134235172 t_1,78_ + 0.2341311134235172 t_2,78_ + 0.26638917793964617 t_1,79_ + 0.26638917793964617 t_2,79_ + 0.3007284079084287 t_1,80_ + 0.3007284079084287 t_2,80_ + 0.33714880332986463 t_1,81_ + 0.33714880332986463 t_2,81_ + 0.3756503642039541 t_1,82_ + 0.3756503642039541 t_2,82_ + 0.416233090530697 t_1,83_ + 0.416233090530697 t_2,83_ + 0.45889698231009346 t_1,84_ + 0.45889698231009346 t_2,84_ + 0.5036420395421434 t_1,85_ + 0.5036420395421434 t_2,85_ + 0.5504682622268467 t_1,86_ + 0.5504682622268467 t_2,86_ + 0.5993756503642043 t_1,87_ + 0.5993756503642043 t_2,87_ + 0.6503642039542147 t_1,88_ + 0.6503642039542147 t_2,88_ + 0.7034339229968785 t_1,89_ + 0.7034339229968785 t_2,89_ + 0.7585848074921958 t_1,90_ + 0.7585848074921958 t_2,90_ + 0.8158168574401666 t_1,91_ + 0.8158168574401666 t_2,91_ + 0.8751300728407909 t_1,92_ + 0.8751300728407909 t_2,92_ + 0.9365244536940688 t_1,93_ + 0.9365244536940688 t_2,93_ + 1 t_1,94_ + 1 t_2,94_ + 1.0655567117585847 t_1,95_ + 1.0655567117585847 t_2,95_ + 1.133194588969823 t_1,96_ + 1.133194588969823 t_2,96_ + 1.2029136316337148 t_1,97_ + 1.2029136316337148 t_2,97_ + 1.27471383975026 t_1,98_ + 1.27471383975026 t_2,98_ + 1.3485952133194585 t_1,99_ + 1.3485952133194585 t_2,99_ + 1.4245577523413107 t_1,100_ + 1.4245577523413107 t_2,100_ + 1.5026014568158164 t_1,101_ + 1.5026014568158164 t_2,101_ + 1.5827263267429765 t_1,102_ + 1.5827263267429765 t_2,102_ + 1.6649323621227892 t_1,103_ + 1.6649323621227892 t_2,103_ + 1.7492195629552554 t_1,104_ + 1.7492195629552554 t_2,104_ + 1.835587929240375 t_1,105_ + 1.835587929240375 t_2,105_ + 1.924037460978148 t_1,106_ + 1.924037460978148 t_2,106_ + 2.014568158168575 t_1,107_ + 2.014568158168575 t_2,107_ + 2.1071800208116547 t_1,108_ + 2.1071800208116547 t_2,108_ + 2.2018730489073883 t_1,109_ + 2.2018730489073883 t_2,109_ + 2.2986472424557753 t_1,110_ + 2.2986472424557753 t_2,110_ + 2.3975026014568157 t_1,111_ + 2.3975026014568157 t_2,111_ + 2.49843912591051 t_1,112_ + 2.49843912591051 t_2,112_ + 2.601456815816857 t_1,113_ + 2.601456815816857 t_2,113_ + 2.7065556711758583 t_1,114_ + 2.7065556711758583 t_2,114_ + 2.8137356919875125 t_1,115_ + 2.8137356919875125 t_2,115_ + 2.9229968782518205 t_1,116_ + 2.9229968782518205 t_2,116_ + 3.034339229968782 t_1,117_ + 3.034339229968782 t_2,117_ + 3.1477627471383984 t_1,118_ + 3.1477627471383984 t_2,118_ + 3.2632674297606665 t_1,119_ + 3.2632674297606665 t_2,119_ + 3.3808532778355884 t_1,120_ + 3.3808532778355884 t_2,120_ + 3.5005202913631637 t_1,121_ + 3.5005202913631637 t_2,121_ + 3.6222684703433927 t_1,122_ + 3.6222684703433927 t_2,122_ + 3.746097814776275 t_1,123_ + 3.746097814776275 t_2,123_ + 3.872008324661811 t_1,124_ + 3.872008324661811 t_2,124_ + 4 t_1,125_ + 4 t_2,125_ <= 1
c1: 1 y_1,1_ + 1 y_1,2_ + 1 y_1,3_ + 1 y_1,4_ + 1 y_1,5_ + 1 y_1,6_ + 1 y_1,7_ + 1 y_1,8_ + 1 y_1,9_ + 1 y_1,10_ + 1 y_1,11_ + 1 y_1,12_ + 1 y_1,13_ + 1 y_1,14_ + 1 y_1,15_ + 1 y_1,16_ + 1 y_1,17_ + 1 y_1,18_ + 1 y_1,19_ + 1 y_1,20_ + 1 y_1,21_ + 1 y_1,22_ + 1 y_1,23_ + 1 y_1,24_ + 1 y_1,25_ + 1 y_1,26_ + 1 y_1,27_ + 1 y_1,28_ + 1 y_1,29_ + 1 y_1,30_ + 1 y_1,31_ + 1 y_1,32_ + 1 y_1,33_ + 1 y_1,34_ + 1 y_1,35_ + 1 y_1,36_ + 1 y_1,37_ + 1 y_1,38_ + 1 y_1,39_ + 1 y_1,40_ + 1 y_1,41_ + 1 y_1,42_ + 1 y_1,43_ + 1 y_1,44_ + 1 y_1,45_ + 1 y_1,46_ + 1 y_1,47_ + 1 y_1,48_ + 1 y_1,49_ + 1 y_1,50_ + 1 y_1,51_ + 1 y_1,52_ + 1 y_1,53_ + 1 y_1,54_ + 1 y_1,55_ + 1 y_1,56_ + 1 y_1,57_ + 1 y_1,58_ + 1 y_1,59_ + 1 y_1,60_ + 1 y_1,61_ + 1 y_1,62_ + 1 y_1,63_ + 1 y_1,64_ + 1 y_1,65_ + 1 y_1,66_ + 1 y_1,67_ + 1 y_1,68_ + 1 y_1,69_ + 1 y_1,70_ + 1 y_1,71_ + 1 y_1,72_ + 1 y_1,73_ + 1 y_1,74_ + 1 y_1,75_ + 1 y_1,76_ + 1 y_1,77_ + 1 y_1,78_ + 1 y_1,79_ + 1 y_1,80_ + 1 y_1,81_ + 1 y_1,82_ + 1 y_1,83_ + 1 y_1,84_ + 1 y_1,85_ + 1 y_1,86_ + 1 y_1,87_ + 1 y_1,88_ + 1 y_1,89_ + 1 y_1,90_ + 1 y_1,91_ + 1 y_1,92_ + 1 y_1,93_ + 1 y_1,94_ + 1 y_1,95_ + 1 y_1,96_ + 1 y_1,97_ + 1 y_1,98_ + 1 y_1,99_ + 1 y_1,100_ + 1 y_1,101_ + 1 y_1,102_ + 1 y_1,103_ + 1 y_1,104_ + 1 y_1,105_ + 1 y_1,106_ + 1 y_1,107_ + 1 y_1,108_ + 1 y_1,109_ + 1 y_1,110_ + 1 y_1,111_ + 1 y_1,112_ + 1 y_1,113_ + 1 y_1,114_ + 1 y_1,115_ + 1 y_1,116_ + 1 y_1,117_ + 1 y_1,118_ + 1 y_1,119_ + 1 y_1,120_ + 1 y_1,121_ + 1 y_1,122_ + 1 y_1,123_ + 1 y_1,124_ = 1
c2: 1 t_1,1_ + 1 t_1,2_ + 1 t_1,3_ + 1 t_1,4_ + 1 t_1,5_ + 1 t_1,6_ + 1 t_1,7_ + 1 t_1,8_ + 1 t_1,9_ + 1 t_1,10_ + 1 t_1,11_ + 1 t_1,12_ + 1 t_1,13_ + 1 t_1,14_ + 1 t_1,15_ + 1 t_1,16_ + 1 t_1,17_ + 1 t_1,18_ + 1 t_1,19_ + 1 t_1,20_ + 1 t_1,21_ + 1 t_1,22_ + 1 t_1,23_ + 1 t_1,24_ + 1 t_1,25_ + 1 t_1,26_ + 1 t_1,27_ + 1 t_1,28_ + 1 t_1,29_ + 1 t_1,30_ + 1 t_1,31_ + 1 t_1,32_ + 1 t_1,33_ + 1 t_1,34_ + 1 t_1,35_ + 1 t_1,36_ + 1 t_1,37_ + 1 t_1,38_ + 1 t_1,39_ + 1 t_1,40_ + 1 t_1,41_ + 1 t_1,42_ + 1 t_1,43_ + 1 t_1,44_ + 1 t_1,45_ + 1 t_1,46_ + 1 t_1,47_ + 1 t_1,48_ + 1 t_1,49_ + 1 t_1,50_ + 1 t_1,51_ + 1 t_1,52_ + 1 t_1,53_ + 1 t_1,54_ + 1 t_1,55_ + 1 t_1,56_ + 1 t_1,57_ + 1 t_1,58_ + 1 t_1,59_ + 1 t_1,60_ + 1 t_1,61_ + 1 t_1,62_ + 1 t_1,63_ + 1 t_1,64_ + 1 t_1,65_ + 1 t_1,66_ + 1 t_1,67_ + 1 t_1,68_ + 1 t_1,69_ + 1 t_1,70_ + 1 t_1,71_ + 1 t_1,72_ + 1 t_1,73_ + 1 t_1,74_ + 1 t_1,75_ + 1 t_1,76_ + 1 t_1,77_ + 1 t_1,78_ + 1 t_1,79_ + 1 t_1,80_ + 1 t_1,81_ + 1 t_1,82_ + 1 t_1,83_ + 1 t_1,84_ + 1 t_1,85_ + 1 t_1,86_ + 1 t_1,87_ + 1 t_1,88_ + 1 t_1,89_ + 1 t_1,90_ + 1 t_1,91_ + 1 t_1,92_ + 1 t_1,93_ + 1 t_1,94_ + 1 t_1,95_ + 1 t_1,96_ + 1 t_1,97_ + 1 t_1,98_ + 1 t_1,99_ + 1 t_1,100_ + 1 t_1,101_ + 1 t_1,102_ + 1 t_1,103_ + 1 t_1,104_ + 1 t_1,105_ + 1 t_1,106_ + 1 t_1,107_ + 1 t_1,108_ + 1 t_1,109_ + 1 t_1,110_ + 1 t_1,111_ + 1 t_1,112_ + 1 t_1,113_ + 1 t_1,114_ + 1 t_1,115_ + 1 t_1,116_ + 1 t_1,117_ + 1 t_1,118_ + 1 t_1,119_ + 1 t_1,120_ + 1 t_1,121_ + 1 t_1,122_ + 1 t_1,123_ + 1 t_1,124_ + 1 t_1,125_ = 1
c3: -2 t_1,1_ - 1.967741935483871 t_1,2_ - 1.935483870967742 t_1,3_ - 1.903225806451613 t_1,4_ - 1.870967741935484 t_1,5_ - 1.838709677419355 t_1,6_ - 1.806451612903226 t_1,7_ - 1.774193548387097 t_1,8_ - 1.741935483870968 t_1,9_ - 1.7096774193548385 t_1,10_ - 1.6774193548387095 t_1,11_ - 1.6451612903225805 t_1,12_ - 1.6129032258064515 t_1,13_ - 1.5806451612903225 t_1,14_ - 1.5483870967741935 t_1,15_ - 1.5161290322580645 t_1,16_ - 1.4838709677419355 t_1,17_ - 1.4516129032258065 t_1,18_ - 1.4193548387096775 t_1,19_ - 1.3870967741935485 t_1,20_ - 1.3548387096774195 t_1,21_ - 1.3225806451612905 t_1,22_ - 1.290322580645161 t_1,23_ - 1.258064516129032 t_1,24_ - 1.225806451612903 t_1,25_ - 1.193548387096774 t_1,26_ - 1.161290322580645 t_1,27_ - 1.129032258064516 t_1,28_ - 1.096774193548387 t_1,29_ - 1.064516129032258 t_1,30_ - 1.032258064516129 t_1,31_ - 1 t_1,32_ - 0.967741935483871 t_1,33_ - 0.935483870967742 t_1,34_ - 0.903225806451613 t_1,35_ - 0.8709677419354839 t_1,36_ - 0.8387096774193549 t_1,37_ - 0.8064516129032259 t_1,38_ - 0.7741935483870969 t_1,39_ - 0.7419354838709679 t_1,40_ - 0.7096774193548389 t_1,41_ - 0.6774193548387099 t_1,42_ - 0.6451612903225808 t_1,43_ - 0.6129032258064515 t_1,44_ - 0.5806451612903225 t_1,45_ - 0.5483870967741935 t_1,46_ - 0.5161290322580645 t_1,47_ - 0.4838709677419355 t_1,48_ - 0.4516129032258065 t_1,49_ - 0.4193548387096775 t_1,50_ - 0.3870967741935485 t_1,51_ - 0.35483870967741915 t_1,52_ - 0.32258064516129015 t_1,53_ - 0.29032258064516114 t_1,54_ - 0.25806451612903214 t_1,55_ - 0.22580645161290314 t_1,56_ - 0.19354838709677413 t_1,57_ - 0.16129032258064513 t_1,58_ - 0.12903225806451613 t_1,59_ - 0.09677419354838701 t_1,60_ - 0.06451612903225801 t_1,61_ - 0.032258064516129004 t_1,62_ + 0.032258064516129004 t_1,64_ + 0.06451612903225801 t_1,65_ + 0.09677419354838701 t_1,66_ + 0.12903225806451601 t_1,67_ + 0.16129032258064502 t_1,68_ + 0.19354838709677402 t_1,69_ + 0.22580645161290303 t_1,70_ + 0.2580645161290325 t_1,71_ + 0.2903225806451615 t_1,72_ + 0.3225806451612905 t_1,73_ + 0.3548387096774195 t_1,74_ + 0.3870967741935485 t_1,75_ + 0.4193548387096775 t_1,76_ + 0.4516129032258065 t_1,77_ + 0.4838709677419355 t_1,78_ + 0.5161290322580645 t_1,79_ + 0.5483870967741935 t_1,80_ + 0.5806451612903225 t_1,81_ + 0.6129032258064515 t_1,82_ + 0.6451612903225805 t_1,83_ + 0.6774193548387095 t_1,84_ + 0.7096774193548385 t_1,85_ + 0.7419354838709675 t_1,86_ + 0.774193548387097 t_1,87_ + 0.806451612903226 t_1,88_ + 0.838709677419355 t_1,89_ + 0.870967741935484 t_1,90_ + 0.903225806451613 t_1,91_ + 0.935483870967742 t_1,92_ + 0.967741935483871 t_1,93_ + 1 t_1,94_ + 1.032258064516129 t_1,95_ + 1.064516129032258 t_1,96_ + 1.096774193548387 t_1,97_ + 1.129032258064516 t_1,98_ + 1.161290322580645 t_1,99_ + 1.193548387096774 t_1,100_ + 1.225806451612903 t_1,101_ + 1.2580645161290325 t_1,102_ + 1.2903225806451615 t_1,103_ + 1.3225806451612905 t_1,104_ + 1.3548387096774195 t_1,105_ + 1.3870967741935485 t_1,106_ + 1.4193548387096775 t_1,107_ + 1.4516129032258065 t_1,108_ + 1.4838709677419355 t_1,109_ + 1.5161290322580645 t_1,110_ + 1.5483870967741935 t_1,111_ + 1.5806451612903225 t_1,112_ + 1.6129032258064515 t_1,113_ + 1.6451612903225805 t_1,114_ + 1.6774193548387095 t_1,115_ + 1.7096774193548385 t_1,116_ + 1.7419354838709675 t_1,117_ + 1.774193548387097 t_1,118_ + 1.806451612903226 t_1,119_ + 1.838709677419355 t_1,120_ + 1.870967741935484 t_1,121_ + 1.903225806451613 t_1,122_ + 1.935483870967742 t_1,123_ + 1.967741935483871 t_1,124_ + 2 t_1,125_ - 1 x_1_ = 0
c4: 1 y_2,1_ + 1 y_2,2_ + 1 y_2,3_ + 1 y_2,4_ + 1 y_2,5_ + 1 y_2,6_ + 1 y_2,7_ + 1 y_2,8_ + 1 y_2,9_ + 1 y_2,10_ + 1 y_2,11_ + 1 y_2,12_ + 1 y_2,13_ + 1 y_2,14_ + 1 y_2,15_ + 1 y_2,16_ + 1 y_2,17_ + 1 y_2,18_ + 1 y_2,19_ + 1 y_2,20_ + 1 y_2,21_ + 1 y_2,22_ + 1 y_2,23_ + 1 y_2,24_ + 1 y_2,25_ + 1 y_2,26_ + 1 y_2,27_ + 1 y_2,28_ + 1 y_2,29_ + 1 y_2,30_ + 1 y_2,31_ + 1 y_2,32_ + 1 y_2,33_ + 1 y_2,34_ + 1 y_2,35_ + 1 y_2,36_ + 1 y_2,37_ + 1 y_2,38_ + 1 y_2,39_ + 1 y_2,40_ + 1 y_2,41_ + 1 y_2,42_ + 1 y_2,43_ + 1 y_2,44_ + 1 y_2,45_ + 1 y_2,46_ + 1 y_2,47_ + 1 y_2,48_ + 1 y_2,49_ + 1 y_2,50_ + 1 y_2,51_ + 1 y_2,52_ + 1 y_2,53_ + 1 y_2,54_ + 1 y_2,55_ + 1 y_2,56_ + 1 y_2,57_ + 1 y_2,58_ + 1 y_2,59_ + 1 y_2,60_ + 1 y_2,61_ + 1 y_2,62_ + 1 y_2,63_ + 1 y_2,64_ + 1 y_2,65_ + 1 y_2,66_ + 1 y_2,67_ + 1 y_2,68_ + 1 y_2,69_ + 1 y_2,70_ + 1 y_2,71_ + 1 y_2,72_ + 1 y_2,73_ + 1 y_2,74_ + 1 y_2,75_ + 1 y_2,76_ + 1 y_2,77_ + 1 y_2,78_ + 1 y_2,79_ + 1 y_2,80_ + 1 y_2,81_ + 1 y_2,82_ + 1 y_2,83_ + 1 y_2,84_ + 1 y_2,85_ + 1 y_2,86_ + 1 y_2,87_ + 1 y_2,88_ + 1 y_2,89_ + 1 y_2,90_ + 1 y_2,91_ + 1 y_2,92_ + 1 y_2,93_ + 1 y_2,94_ + 1 y_2,95_ + 1 y_2,96_ + 1 y_2,97_ + 1 y_2,98_ + 1 y_2,99_ + 1 y_2,100_ + 1 y_2,101_ + 1 y_2,102_ + 1 y_2,103_ + 1 y_2,104_ + 1 y_2,105_ + 1 y_2,106_ + 1 y_2,107_ + 1 y_2,108_ + 1 y_2,109_ + 1 y_2,110_ + 1 y_2,111_ + 1 y_2,112_ + 1 y_2,113_ + 1 y_2,114_ + 1 y_2,115_ + 1 y_2,116_ + 1 y_2,117_ + 1 y_2,118_ + 1 y_2,119_ + 1 y_2,120_ + 1 y_2,121_ + 1 y_2,122_ + 1 y_2,123_ + 1 y_2,124_ = 1
c5: 1 t_2,1_ + 1 t_2,2_ + 1 t_2,3_ + 1 t_2,4_ + 1 t_2,5_ + 1 t_2,6_ + 1 t_2,7_ + 1 t_2,8_ + 1 t_2,9_ + 1 t_2,10_ + 1 t_2,11_ + 1 t_2,12_ + 1 t_2,13_ + 1 t_2,14_ + 1 t_2,15_ + 1 t_2,16_ + 1 t_2,17_ + 1 t_2,18_ + 1 t_2,19_ + 1 t_2,20_ + 1 t_2,21_ + 1 t_2,22_ + 1 t_2,23_ + 1 t_2,24_ + 1 t_2,25_ + 1 t_2,26_ + 1 t_2,27_ + 1 t_2,28_ + 1 t_2,29_ + 1 t_2,30_ + 1 t_2,31_ + 1 t_2,32_ + 1 t_2,33_ + 1 t_2,34_ + 1 t_2,35_ + 1 t_2,36_ + 1 t_2,37_ + 1 t_2,38_ + 1 t_2,39_ + 1 t_2,40_ + 1 t_2,41_ + 1 t_2,42_ + 1 t_2,43_ + 1 t_2,44_ + 1 t_2,45_ + 1 t_2,46_ + 1 t_2,47_ + 1 t_2,48_ + 1 t_2,49_ + 1 t_2,50_ + 1 t_2,51_ + 1 t_2,52_ + 1 t_2,53_ + 1 t_2,54_ + 1 t_2,55_ + 1 t_2,56_ + 1 t_2,57_ + 1 t_2,58_ + 1 t_2,59_ + 1 t_2,60_ + 1 t_2,61_ + 1 t_2,62_ + 1 t_2,63_ + 1 t_2,64_ + 1 t_2,65_ + 1 t_2,66_ + 1 t_2,67_ + 1 t_2,68_ + 1 t_2,69_ + 1 t_2,70_ + 1 t_2,71_ + 1 t_2,72_ + 1 t_2,73_ + 1 t_2,74_ + 1 t_2,75_ + 1 t_2,76_ + 1 t_2,77_ + 1 t_2,78_ + 1 t_2,79_ + 1 t_2,80_ + 1 t_2,81_ + 1 t_2,82_ + 1 t_2,83_ + 1 t_2,84_ + 1 t_2,85_ + 1 t_2,86_ + 1 t_2,87_ + 1 t_2,88_ + 1 t_2,89_ + 1 t_2,90_ + 1 t_2,91_ + 1 t_2,92_ + 1 t_2,93_ + 1 t_2,94_ + 1 t_2,95_ + 1 t_2,96_ + 1 t_2,97_ + 1 t_2,98_ + 1 t_2,99_ + 1 t_2,100_ + 1 t_2,101_ + 1 t_2,102_ + 1 t_2,103_ + 1 t_2,104_ + 1 t_2,105_ + 1 t_2,106_ + 1 t_2,107_ + 1 t_2,108_ + 1 t_2,109_ + 1 t_2,110_ + 1 t_2,111_ + 1 t_2,112_ + 1 t_2,113_ + 1 t_2,114_ + 1 t_2,115_ + 1 t_2,116_ + 1 t_2,117_ + 1 t_2,118_ + 1 t_2,119_ + 1 t_2,120_ + 1 t_2,121_ + 1 t_2,122_ + 1 t_2,123_ + 1 t_2,124_ + 1 t_2,125_ = 1
c6: -2 t_2,1_ - 1.967741935483871 t_2,2_ - 1.935483870967742 t_2,3_ - 1.903225806451613 t_2,4_ - 1.870967741935484 t_2,5_ - 1.838709677419355 t_2,6_ - 1.806451612903226 t_2,7_ - 1.774193548387097 t_2,8_ - 1.741935483870968 t_2,9_ - 1.7096774193548385 t_2,10_ - 1.6774193548387095 t_2,11_ - 1.6451612903225805 t_2,12_ - 1.6129032258064515 t_2,13_ - 1.5806451612903225 t_2,14_ - 1.5483870967741935 t_2,15_ - 1.5161290322580645 t_2,16_ - 1.4838709677419355 t_2,17_ - 1.4516129032258065 t_2,18_ - 1.4193548387096775 t_2,19_ - 1.3870967741935485 t_2,20_ - 1.3548387096774195 t_2,21_ - 1.3225806451612905 t_2,22_ - 1.290322580645161 t_2,23_ - 1.258064516129032 t_2,24_ - 1.225806451612903 t_2,25_ - 1.193548387096774 t_2,26_ - 1.161290322580645 t_2,27_ - 1.129032258064516 t_2,28_ - 1.096774193548387 t_2,29_ - 1.064516129032258 t_2,30_ - 1.032258064516129 t_2,31_ - 1 t_2,32_ - 0.967741935483871 t_2,33_ - 0.935483870967742 t_2,34_ - 0.903225806451613 t_2,35_ - 0.8709677419354839 t_2,36_ - 0.8387096774193549 t_2,37_ - 0.8064516129032259 t_2,38_ - 0.7741935483870969 t_2,39_ - 0.7419354838709679 t_2,40_ - 0.7096774193548389 t_2,41_ - 0.6774193548387099 t_2,42_ - 0.6451612903225808 t_2,43_ - 0.6129032258064515 t_2,44_ - 0.5806451612903225 t_2,45_ - 0.5483870967741935 t_2,46_ - 0.5161290322580645 t_2,47_ - 0.4838709677419355 t_2,48_ - 0.4516129032258065 t_2,49_ - 0.4193548387096775 t_2,50_ - 0.3870967741935485 t_2,51_ - 0.35483870967741915 t_2,52_ - 0.32258064516129015 t_2,53_ - 0.29032258064516114 t_2,54_ - 0.25806451612903214 t_2,55_ - 0.22580645161290314 t_2,56_ - 0.19354838709677413 t_2,57_ - 0.16129032258064513 t_2,58_ - 0.12903225806451613 t_2,59_ - 0.09677419354838701 t_2,60_ - 0.06451612903225801 t_2,61_ - 0.032258064516129004 t_2,62_ + 0.032258064516129004 t_2,64_ + 0.06451612903225801 t_2,65_ + 0.09677419354838701 t_2,66_ + 0.12903225806451601 t_2,67_ + 0.16129032258064502 t_2,68_ + 0.19354838709677402 t_2,69_ + 0.22580645161290303 t_2,70_ + 0.2580645161290325 t_2,71_ + 0.2903225806451615 t_2,72_ + 0.3225806451612905 t_2,73_ + 0.3548387096774195 t_2,74_ + 0.3870967741935485 t_2,75_ + 0.4193548387096775 t_2,76_ + 0.4516129032258065 t_2,77_ + 0.4838709677419355 t_2,78_ + 0.5161290322580645 t_2,79_ + 0.5483870967741935 t_2,80_ + 0.5806451612903225 t_2,81_ + 0.6129032258064515 t_2,82_ + 0.6451612903225805 t_2,83_ + 0.6774193548387095 t_2,84_ + 0.7096774193548385 t_2,85_ + 0.7419354838709675 t_2,86_ + 0.774193548387097 t_2,87_ + 0.806451612903226 t_2,88_ + 0.838709677419355 t_2,89_ + 0.870967741935484 t_2,90_ + 0.903225806451613 t_2,91_ + 0.935483870967742 t_2,92_ + 0.967741935483871 t_2,93_ + 1 t_2,94_ + 1.032258064516129 t_2,95_ + 1.064516129032258 t_2,96_ + 1.096774193548387 t_2,97_ + 1.129032258064516 t_2,98_ + 1.161290322580645 t_2,99_ + 1.193548387096774 t_2,100_ + 1.225806451612903 t_2,101_ + 1.2580645161290325 t_2,102_ + 1.2903225806451615 t_2,103_ + 1.3225806451612905 t_2,104_ + 1.3548387096774195 t_2,105_ + 1.3870967741935485 t_2,106_ + 1.4193548387096775 t_2,107_ + 1.4516129032258065 t_2,108_ + 1.4838709677419355 t_2,109_ + 1.5161290322580645 t_2,110_ + 1.5483870967741935 t_2,111_ + 1.5806451612903225 t_2,112_ + 1.6129032258064515 t_2,113_ + 1.6451612903225805 t_2,114_ + 1.6774193548387095 t_2,115_ + 1.7096774193548385 t_2,116_ + 1.7419354838709675 t_2,117_ + 1.774193548387097 t_2,118_ + 1.806451612903226 t_2,119_ + 1.838709677419355 t_2,120_ + 1.870967741935484 t_2,121_ + 1.903225806451613 t_2,122_ + 1.935483870967742 t_2,123_ + 1.967741935483871 t_2,124_ + 2 t_2,125_ - 1 x_2_ = 0
Bounds
x_1_ <= 2
x_2_ <= 2
t_1,1_ >= 0
t_2,1_ >= 0
t_1,2_ >= 0
t_2,2_ >= 0
t_1,3_ >= 0
t_2,3_ >= 0
t_1,4_ >= 0
t_2,4_ >= 0
t_1,5_ >= 0
t_2,5_ >= 0
t_1,6_ >= 0
t_2,6_ >= 0
t_1,7_ >= 0
t_2,7_ >= 0
t_1,8_ >= 0
t_2,8_ >= 0
t_1,9_ >= 0
t_2,9_ >= 0
t_1,10_ >= 0
t_2,10_ >= 0
t_1,11_ >= 0
t_2,11_ >= 0
t_1,12_ >= 0
t_2,12_ >= 0
t_1,13_ >= 0
t_2,13_ >= 0
t_1,14_ >= 0
t_2,14_ >= 0
t_1,15_ >= 0
t_2,15_ >= 0
t_1,16_ >= 0
t_2,16_ >= 0
t_1,17_ >= 0
t_2,17_ >= 0
t_1,18_ >= 0
t_2,18_ >= 0
t_1,19_ >= 0
t_2,19_ >= 0
t_1,20_ >= 0
t_2,20_ >= 0
t_1,21_ >= 0
t_2,21_ >= 0
t_1,22_ >= 0
t_2,22_ >= 0
t_1,23_ >= 0
t_2,23_ >= 0
t_1,24_ >= 0
t_2,24_ >= 0
t_1,25_ >= 0
t_2,25_ >= 0
t_1,26_ >= 0
t_2,26_ >= 0
t_1,27_ >= 0
t_2,27_ >= 0
t_1,28_ >= 0
t_2,28_ >= 0
t_1,29_ >= 0
t_2,29_ >= 0
t_1,30_ >= 0
t_2,30_ >= 0
t_1,31_ >= 0
t_2,31_ >= 0
t_1,32_ >= 0
t_2,32_ >= 0
t_1,33_ >= 0
t_2,33_ >= 0
t_1,34_ >= 0
t_2,34_ >= 0
t_1,35_ >= 0
t_2,35_ >= 0
t_1,36_ >= 0
t_2,36_ >= 0
t_1,37_ >= 0
t_2,37_ >= 0
t_1,38_ >= 0
t_2,38_ >= 0
t_1,39_ >= 0
t_2,39_ >= 0
t_1,40_ >= 0
t_2,40_ >= 0
t_1,41_ >= 0
t_2,41_ >= 0
t_1,42_ >= 0
t_2,42_ >= 0
t_1,43_ >= 0
t_2,43_ >= 0
t_1,44_ >= 0
t_2,44_ >= 0
t_1,45_ >= 0
t_2,45_ >= 0
t_1,46_ >= 0
t_2,46_ >= 0
t_1,47_ >= 0
t_2,47_ >= 0
t_1,48_ >= 0
t_2,48_ >= 0
t_1,49_ >= 0
t_2,49_ >= 0
t_1,50_ >= 0
t_2,50_ >= 0
t_1,51_ >= 0
t_2,51_ >= 0
t_1,52_ >= 0
t_2,52_ >= 0
t_1,53_ >= 0
t_2,53_ >= 0
t_1,54_ >= 0
t_2,54_ >= 0
t_1,55_ >= 0
t_2,55_ >= 0
t_1,56_ >= 0
t_2,56_ >= 0
t_1,57_ >= 0
t_2,57_ >= 0
t_1,58_ >= 0
t_2,58_ >= 0
t_1,59_ >= 0
t_2,59_ >= 0
t_1,60_ >= 0
t_2,60_ >= 0
t_1,61_ >= 0
t_2,61_ >= 0
t_1,62_ >= 0
t_2,62_ >= 0
t_1,63_ >= 0
t_2,63_ >= 0
t_1,64_ >= 0
t_2,64_ >= 0
t_1,65_ >= 0
t_2,65_ >= 0
t_1,66_ >= 0
t_2,66_ >= 0
t_1,67_ >= 0
t_2,67_ >= 0
t_1,68_ >= 0
t_2,68_ >= 0
t_1,69_ >= 0
t_2,69_ >= 0
t_1,70_ >= 0
t_2,70_ >= 0
t_1,71_ >= 0
t_2,71_ >= 0
t_1,72_ >= 0
t_2,72_ >= 0
t_1,73_ >= 0
t_2,73_ >= 0
t_1,74_ >= 0
t_2,74_ >= 0
t_1,75_ >= 0
t_2,75_ >= 0
t_1,76_ >= 0
t_2,76_ >= 0
t_1,77_ >= 0
t_2,77_ >= 0
t_1,78_ >= 0
t_2,78_ >= 0
t_1,79_ >= 0
t_2,79_ >= 0
t_1,80_ >= 0
t_2,80_ >= 0
t_1,81_ >= 0
t_2,81_ >= 0
t_1,82_ >= 0
t_2,82_ >= 0
t_1,83_ >= 0
t_2,83_ >= 0
t_1,84_ >= 0
t_2,84_ >= 0
t_1,85_ >= 0
t_2,85_ >= 0
t_1,86_ >= 0
t_2,86_ >= 0
t_1,87_ >= 0
t_2,87_ >= 0
t_1,88_ >= 0
t_2,88_ >= 0
t_1,89_ >= 0
t_2,89_ >= 0
t_1,90_ >= 0
t_2,90_ >= 0
t_1,91_ >= 0
t_2,91_ >= 0
t_1,92_ >= 0
t_2,92_ >= 0
t_1,93_ >= 0
t_2,93_ >= 0
t_1,94_ >= 0
t_2,94_ >= 0
t_1,95_ >= 0
t_2,95_ >= 0
t_1,96_ >= 0
t_2,96_ >= 0
t_1,97_ >= 0
t_2,97_ >= 0
t_1,98_ >= 0
t_2,98_ >= 0
t_1,99_ >= 0
t_2,99_ >= 0
t_1,100_ >= 0
t_2,100_ >= 0
t_1,101_ >= 0
t_2,101_ >= 0
t_1,102_ >= 0
t_2,102_ >= 0
t_1,103_ >= 0
t_2,103_ >= 0
t_1,104_ >= 0
t_2,104_ >= 0
t_1,105_ >= 0
t_2,105_ >= 0
t_1,106_ >= 0
t_2,106_ >= 0
t_1,107_ >= 0
t_2,107_ >= 0
t_1,108_ >= 0
t_2,108_ >= 0
t_1,109_ >= 0
t_2,109_ >= 0
t_1,110_ >= 0
t_2,110_ >= 0
t_1,111_ >= 0
t_2,111_ >= 0
t_1,112_ >= 0
t_2,112_ >= 0
t_1,113_ >= 0
t_2,113_ >= 0
t_1,114_ >= 0
t_2,114_ >= 0
t_1,115_ >= 0
t_2,115_ >= 0
t_1,116_ >= 0
t_2,116_ >= 0
t_1,117_ >= 0
t_2,117_ >= 0
t_1,118_ >= 0
t_2,118_ >= 0
t_1,119_ >= 0
t_2,119_ >= 0
t_1,120_ >= 0
t_2,120_ >= 0
t_1,121_ >= 0
t_2,121_ >= 0
t_1,122_ >= 0
t_2,122_ >= 0
t_1,123_ >= 0
t_2,123_ >= 0
t_1,124_ >= 0
t_2,124_ >= 0
t_1,125_ >= 0
t_2,125_ >= 0
x_1_ >= -2
x_2_ >= -2
Binary
y_1,1_
y_2,1_
y_1,2_
y_2,2_
y_1,3_
y_2,3_
y_1,4_
y_2,4_
y_1,5_
y_2,5_
y_1,6_
y_2,6_
y_1,7_
y_2,7_
y_1,8_
y_2,8_
y_1,9_
y_2,9_
y_1,10_
y_2,10_
y_1,11_
y_2,11_
y_1,12_
y_2,12_
y_1,13_
y_2,13_
y_1,14_
y_2,14_
y_1,15_
y_2,15_
y_1,16_
y_2,16_
y_1,17_
y_2,17_
y_1,18_
y_2,18_
y_1,19_
y_2,19_
y_1,20_
y_2,20_
y_1,21_
y_2,21_
y_1,22_
y_2,22_
y_1,23_
y_2,23_
y_1,24_
y_2,24_
y_1,25_
y_2,25_
y_1,26_
y_2,26_
y_1,27_
y_2,27_
y_1,28_
y_2,28_
y_1,29_
y_2,29_
y_1,30_
y_2,30_
y_1,31_
y_2,31_
y_1,32_
y_2,32_
y_1,33_
y_2,33_
y_1,34_
y_2,34_
y_1,35_
y_2,35_
y_1,36_
y_2,36_
y_1,37_
y_2,37_
y_1,38_
y_2,38_
y_1,39_
y_2,39_
y_1,40_
y_2,40_
y_1,41_
y_2,41_
y_1,42_
y_2,42_
y_1,43_
y_2,43_
y_1,44_
y_2,44_
y_1,45_
y_2,45_
y_1,46_
y_2,46_
y_1,47_
y_2,47_
y_1,48_
y_2,48_
y_1,49_
y_2,49_
y_1,50_
y_2,50_
y_1,51_
y_2,51_
y_1,52_
y_2,52_
y_1,53_
y_2,53_
y_1,54_
y_2,54_
y_1,55_
y_2,55_
y_1,56_
y_2,56_
y_1,57_
y_2,57_
y_1,58_
y_2,58_
y_1,59_
y_2,59_
y_1,60_
y_2,60_
y_1,61_
y_2,61_
y_1,62_
y_2,62_
y_1,63_
y_2,63_
y_1,64_
y_2,64_
y_1,65_
y_2,65_
y_1,66_
y_2,66_
y_1,67_
y_2,67_
y_1,68_
y_2,68_
y_1,69_
y_2,69_
y_1,70_
y_2,70_
y_1,71_
y_2,71_
y_1,72_
y_2,72_
y_1,73_
y_2,73_
y_1,74_
y_2,74_
y_1,75_
y_2,75_
y_1,76_
y_2,76_
y_1,77_
y_2,77_
y_1,78_
y_2,78_
y_1,79_
y_2,79_
y_1,80_
y_2,80_
y_1,81_
y_2,81_
y_1,82_
y_2,82_
y_1,83_
y_2,83_
y_1,84_
y_2,84_
y_1,85_
y_2,85_
y_1,86_
y_2,86_
y_1,87_
y_2,87_
y_1,88_
y_2,88_
y_1,89_
y_2,89_
y_1,90_
y_2,90_
y_1,91_
y_2,91_
y_1,92_
y_2,92_
y_1,93_
y_2,93_
y_1,94_
y_2,94_
y_1,95_
y_2,95_
y_1,96_
y_2,96_
y_1,97_
y_2,97_
y_1,98_
y_2,98_
y_1,99_
y_2,99_
y_1,100_
y_2,100_
y_1,101_
y_2,101_
y_1,102_
y_2,102_
y_1,103_
y_2,103_
y_1,104_
y_2,104_
y_1,105_
y_2,105_
y_1,106_
y_2,106_
y_1,107_
y_2,107_
y_1,108_
y_2,108_
y_1,109_
y_2,109_
y_1,110_
y_2,110_
y_1,111_
y_2,111_
y_1,112_
y_2,112_
y_1,113_
y_2,113_
y_1,114_
y_2,114_
y_1,115_
y_2,115_
y_1,116_
y_2,116_
y_1,117_
y_2,117_
y_1,118_
y_2,118_
y_1,119_
y_2,119_
y_1,120_
y_2,120_
y_1,121_
y_2,121_
y_1,122_
y_2,122_
y_1,123_
y_2,123_
y_1,124_
y_2,124_
End
