res_glpk/log/2_124.log
GLPSOL--GLPK LP/MIP Solver 5.0
Parameter(s) specified in the command line:
 --lp ../modeles/2_124.lp --log 2_124.log
Reading problem data from '../modeles/2_124.lp'...
257 rows, 500 columns, 1742 non-zeros
248 integer variables, all of which are binary
765 lines were read
GLPK Integer Optimizer 5.0
257 rows, 500 columns, 1742 non-zeros
248 integer variables, all of which are binary
Preprocessing...
244 constraint coefficient(s) were reduced
257 rows, 498 columns, 1740 non-zeros
248 integer variables, all of which are binary
Scaling...
 A: min|aij| =  1.041e-03  max|aij| =  4.000e+00  ratio =  3.844e+03
GM: min|aij| =  1.270e-01  max|aij| =  7.874e+00  ratio =  6.200e+01
EQ: min|aij| =  1.613e-02  max|aij| =  1.000e+00  ratio =  6.200e+01
2N: min|aij| =  1.562e-02  max|aij| =  1.740e+00  ratio =  1.114e+02
Constructing initial basis...
Size of triangular part is 257
Solving LP relaxation...
GLPK Simplex Optimizer 5.0
257 rows, 498 columns, 1740 non-zeros
      0: obj =   4.000000000e+00 inf =   9.500e+00 (5)
     33: obj =   4.129897176e-01 inf =   0.000e+00 (0)
*   116: obj =  -1.414103526e+00 inf =   3.152e-16 (0)
OPTIMAL LP SOLUTION FOUND
Integer optimization begins...
Long-step dual simplex will be used
+   116: mip =     not found yet >=              -inf        (1; 0)
+   118: >>>>>  -1.414103526e+00 >=  -1.414103526e+00   0.0% (3; 0)
+   118: mip =  -1.414103526e+00 >=     tree is empty   0.0% (0; 5)
INTEGER OPTIMAL SOLUTION FOUND
Time used:   0.0 secs
Memory used: 0.8 Mb (794858 bytes)
